Route #1: 1 64 46 5 45 44 61 51 2 26 1 
Route #2: 1 1 56 15 31 60 7 62 21 30 48 1 
Route #3: 1 63 50 55 39 23 11 32 42 4 33 1 
Route #4: 1 25 19 53 38 40 3 67 6 24 1 
Route #5: 1 35 47 27 65 13 14 52 1 
Route #6: 1 43 59 34 9 57 22 17 36 1 
Route #7: 1 66 16 12 20 37 41 8 1 
Route #8: 1 29 58 10 18 28 54 1 
Route #9: 1 49 1 

Cost 1541.35
Time 0.7113


 * Another infos *

 Iterations: 68 Time: 0.7113 sec - 0.0119 min - 0.0002 horas
0.0000 h 0.0119 min
Problem dimension: 68
